problem_generation/data/GISP/train/er_n=63_m=1159_p=0.60_SET2_setparam=100.00_alpha=0.50_334.lp
maximize
OBJ:100x0 + 100x1 + 100x2 + 100x3 + 100x4 + 100x5 + 100x6 + 100x7 + 100x8 + 100x9 + 100x10 + 100x11 + 100x12 + 100x13 + 100x14 + 100x15 + 100x16 + 100x17 + 100x18 + 100x19 + 100x20 + 100x21 + 100x22 + 100x23 + 100x24 + 100x25 + 100x26 + 100x27 + 100x28 + 100x29 + 100x30 + 100x31 + 100x32 + 100x33 + 100x34 + 100x35 + 100x36 + 100x37 + 100x38 + 100x39 + 100x40 + 100x41 + 100x42 + 100x43 + 100x44 + 100x45 + 100x46 + 100x47 + 100x48 + 100x49 + 100x50 + 100x51 + 100x52 + 100x53 + 100x54 + 100x55 + 100x56 + 100x57 + 100x58 + 100x59 + 100x60 + 100x61 + 100x62 - y55_57 - y7_17 - y36_53 - y26_30 - y47_62 - y17_58 - y29_32 - y8_9 - y0_5 - y29_41 - y8_18 - y21_37 - y40_41 - y11_14 - y0_23 - y29_59 - y10_27 - y33_56 - y44_56 - y3_15 - y2_59 - y3_24 - y14_24 - y25_61 - y3_33 - y14_33 - y22_46 - y14_51 - y15_16 - y36_48 - y17_44 - y7_21 - y18_30 - y17_62 - y9_58 - y21_32 - y29_54 - y21_50 - y10_40 - y2_36 - y25_38 - y10_49 - y2_45 - y25_47 - y43_55 - y22_32 - y55_56 - y28_39 - y17_57 - y9_53 - y6_29 - y29_31 - y9_62 - y21_27 - y21_36 - y40_49 - y21_45 - y6_56 - y10_26 - y2_22 - y33_37 - y10_44 - y3_5 - y32_41 - y2_49 - y32_50 - y43_50 - y1_53 - y14_32 - y55_60 - y28_43 - y9_39 - y6_15 - y28_61 - y50_58 - y29_35 - y6_42 - y40_44 - y21_40 - y39_57 - y20_53 - y31_53 - y10_30 - y54_55 - y2_26 - y12_58 - y32_36 - y13_32 - y35_41 - y32_54 - y24_50 - y24_59 - y28_29 - y28_38 - y36_51 - y17_47 - y28_47 - y9_43 - y28_56 - y9_61 - y21_26 - y6_37 - y42_58 - y21_35 - y2_3 - y39_61 - y12_44 - y12_53 - y2_30 - y4_49 - y23_62 - y51_53 - y1_34 - y35_36 - y32_58 - y35_54 - y16_50 - y17_24 - y57_60 - y17_33 - y9_29 - y5_40 - y28_42 - y9_47 - y58_61 - y27_55 - y0_56 - y11_56 - y39_47 - y12_39 - y31_52 - y12_57 - y13_31 - y32_44 - y35_40 - y13_49 - y35_49 - y35_58 - y16_54 - y5_17 - y49_51 - y28_37 - y6_18 - y27_50 - y8_46 - y19_46 - y42_48 - y19_55 - y30_55 - y42_57 - y23_25 - y20_38 - y31_38 - y23_34 - y31_47 - y23_43 - y31_56 - y4_48 - y1_24 - y32_39 - y34_58 - y13_35 - y38_46 - y5_21 - y17_23 - y46_59 - y15_53 - y26_53 - y7_58 - y30_41 - y42_52 - y19_59 - y0_55 - y39_46 - y23_29 - y20_42 - y4_25 - y31_42 - y12_38 - y31_51 - y4_43 - y23_56 - y53_57 - y34_53 - y45_53 - y13_30 - y22_60 - y34_62 - y1_37 - y37_58 - y56_62 - y1_46 - y26_57 - y18_53 - y7_62 - y27_40 - y8_45 - y0_41 - y8_54 - y41_60 - y52_60 - y12_33 - y4_29 - y12_42 - y4_38 - y34_48 - y45_57 - y56_57 - y1_32 - y3_60 - y37_62 - y38_45 - y49_54 - y8_13 - y18_57 - y0_27 - y8_49 - y20_23 - y4_6 - y12_19 - y52_55 - y20_32 - y12_37 - y25_56 - y22_41 - y53_56 - y37_39 - y34_52 - y3_46 - y56_61 - y37_57 - y15_47 - y18_52 - y0_13 - y7_61 - y27_39 - y11_22 - y29_58 - y30_35 - y0_31 - y30_44 - y33_46 - y44_46 - y52_59 - y22_36 - y3_32 - y14_50 - y14_59 - y15_24 - y7_20 - y18_38 - y7_47 - y0_8 - y18_56 - y29_62 - y21_58 - y0_35 - y25_37 - y44_50 - y2_44 - y33_59 - y2_53 - y25_55 - y3_36 - y34_51 - y14_45 - y14_54 - y7_15 - y36_60 - y47_60 - y7_33 - y7_42 - y48_61 - y29_57 - y11_30 - y21_62 - y41_49 - y4_9 - y41_58 - y10_52 - y33_54 - y25_50 - y22_26 - y3_22 - y3_49 - y14_49 - y7_19 - y36_55 - y17_51 - y28_51 - y18_28 - y28_60 - y18_37 - y8_11 - y6_41 - y40_43 - y0_16 - y11_16 - y21_48 - y29_61 - y21_57 - y10_29 - y25_27 - y2_34 - y10_47 - y33_49 - y2_52 - y14_26 - y43_62 - y22_39 - y24_58 - y3_35 - y14_35 - y7_14 - y47_50 - y18_23 - y5_53 - y9_51 - y9_60 - y21_25 - y48_51 - y40_47 - y40_56 - y25_40 - y32_48 - y43_48 - y14_21 - y43_57 - y13_62 - y7_9 - y55_58 - y17_59 - y6_22 - y58_60 - y29_33 - y29_42 - y21_38 - y40_51 - y6_58 - y31_60 - y10_37 - y13_39 - y35_48 - y14_25 - y16_44 - y43_61 - y24_57 - y16_62 - y36_40 - y9_23 - y36_49 - y9_32 - y47_49 - y28_45 - y6_8 - y36_58 - y9_41 - y47_58 - y9_59 - y50_60 - y6_35 - y29_37 - y21_33 - y10_23 - y23_51 - y12_60 - y23_60 - y2_37 - y13_34 - y24_43 - y35_43 - y1_50 - y13_52 - y1_59 - y9_18 - y17_31 - y3_56 - y9_36 - y28_49 - y5_56 - y58_59 - y50_55 - y6_30 - y42_51 - y27_62 - y8_58 - y42_60 - y20_41 - y31_41 - y10_18 - y31_50 - y23_46 - y2_23 - y20_59 - y23_55 - y13_20 - y32_33 - y24_29 - y16_25 - y16_34 - y13_56 - y24_56 - y9_13 - y9_22 - y38_58 - y28_44 - y9_40 - y21_23 - y30_53 - y0_49 - y20_27 - y39_40 - y20_36 - y10_13 - y12_32 - y23_32 - y39_58 - y23_41 - y54_56 - y13_15 - y4_46 - y12_59 - y1_22 - y23_59 - y32_37 - y16_20 - y53_60 - y5_10 - y46_48 - y38_44 - y9_17 - y49_53 - y17_30 - y28_30 - y15_60 - y49_62 - y27_34 - y27_43 - y8_39 - y19_39 - y42_50 - y27_61 - y0_44 - y20_22 - y0_53 - y20_40 - y4_23 - y31_58 - y16_24 - y24_37 - y9_12 - y5_23 - y5_32 - y27_29 - y18_60 - y19_34 - y19_43 - y30_43 - y0_39 - y8_52 - y0_48 - y11_48 - y8_61 - y12_13 - y12_22 - y20_35 - y4_18 - y23_31 - y12_40 - y12_49 - y1_21 - y13_23 - y4_54 - y16_19 - y34_55 - y45_55 - y37_51 - y53_59 - y16_28 - y22_62 - y1_39 - y5_9 - y26_41 - y38_52 - y7_46 - y15_59 - y38_61 - y7_55 - y18_55 - y19_29 - y0_25 - y19_38 - y30_38 - y19_47 - y42_49 - y30_56 - y20_21 - y4_13 - y11_61 - y44_58 - y1_7 - y13_18 - y53_54 - y1_25 - y22_57 - y45_59 - y26_27 - y5_13 - y46_51 - y7_50 - y19_24 - y48_60 - y27_37 - y8_33 - y11_38 - y0_47 - y20_25 - y60_61 - y12_21 - y41_57 - y1_2 - y25_58 - y53_58 - y3_39 - y14_39 - y37_41 - y22_61 - y3_57 - y14_57 - y26_31 - y7_27 - y37_49 - y26_40 - y38_42 - y26_49 - y15_58 - y0_6 - y48_55 - y19_28 - y0_24 - y29_60 - y19_37 - y21_56 - y40_60 - y11_33 - y25_44 - y34_40 - y14_34 - y45_49 - y45_58 - y15_17 - y14_61 - y55_62 - y7_40 - y18_40 - y18_49 - y48_50 - y6_53 - y30_32 - y6_62 - y52_56 - y10_59 - y22_24 - y44_61 - y22_33 - y3_29 - y14_29 - y37_40 - y22_51 - y14_47 - y14_56
 Subject to
C1: x0+x2 <=1 
C2: x0+x4 <=1 
C3: x0+x5-y0_5 <=1 
C4: x0+x6-y0_6 <=1 
C5: x0+x8-y0_8 <=1 
C6: x0+x11 <=1 
C7: x0+x13-y0_13 <=1 
C8: x0+x14 <=1 
C9: x0+x15 <=1 
C10: x0+x16-y0_16 <=1 
C11: x0+x17 <=1 
C12: x0+x19 <=1 
C13: x0+x23-y0_23 <=1 
C14: x0+x24-y0_24 <=1 
C15: x0+x25-y0_25 <=1 
C16: x0+x27-y0_27 <=1 
C17: x0+x30 <=1 
C18: x0+x31-y0_31 <=1 
C19: x0+x32 <=1 
C20: x0+x33 <=1 
C21: x0+x34 <=1 
C22: x0+x35-y0_35 <=1 
C23: x0+x39-y0_39 <=1 
C24: x0+x41-y0_41 <=1 
C25: x0+x42 <=1 
C26: x0+x44-y0_44 <=1 
C27: x0+x45 <=1 
C28: x0+x46 <=1 
C29: x0+x47-y0_47 <=1 
C30: x0+x48-y0_48 <=1 
C31: x0+x49-y0_49 <=1 
C32: x0+x53-y0_53 <=1 
C33: x0+x55-y0_55 <=1 
C34: x0+x56-y0_56 <=1 
C35: x0+x57 <=1 
C36: x0+x58 <=1 
C37: x0+x61 <=1 
C38: x1+x2-y1_2 <=1 
C39: x1+x5 <=1 
C40: x1+x7-y1_7 <=1 
C41: x1+x8 <=1 
C42: x1+x10 <=1 
C43: x1+x20 <=1 
C44: x1+x21-y1_21 <=1 
C45: x1+x22-y1_22 <=1 
C46: x1+x24-y1_24 <=1 
C47: x1+x25-y1_25 <=1 
C48: x1+x26 <=1 
C49: x1+x27 <=1 
C50: x1+x28 <=1 
C51: x1+x31 <=1 
C52: x1+x32-y1_32 <=1 
C53: x1+x33 <=1 
C54: x1+x34-y1_34 <=1 
C55: x1+x36 <=1 
C56: x1+x37-y1_37 <=1 
C57: x1+x39-y1_39 <=1 
C58: x1+x40 <=1 
C59: x1+x42 <=1 
C60: x1+x46-y1_46 <=1 
C61: x1+x48 <=1 
C62: x1+x50-y1_50 <=1 
C63: x1+x51 <=1 
C64: x1+x52 <=1 
C65: x1+x53-y1_53 <=1 
C66: x1+x55 <=1 
C67: x1+x56 <=1 
C68: x1+x59-y1_59 <=1 
C69: x1+x61 <=1 
C70: x2+x3-y2_3 <=1 
C71: x2+x5 <=1 
C72: x2+x6 <=1 
C73: x2+x7 <=1 
C74: x2+x8 <=1 
C75: x2+x10 <=1 
C76: x2+x11 <=1 
C77: x2+x13 <=1 
C78: x2+x15 <=1 
C79: x2+x16 <=1 
C80: x2+x19 <=1 
C81: x2+x22-y2_22 <=1 
C82: x2+x23-y2_23 <=1 
C83: x2+x24 <=1 
C84: x2+x26-y2_26 <=1 
C85: x2+x30-y2_30 <=1 
C86: x2+x34-y2_34 <=1 
C87: x2+x36-y2_36 <=1 
C88: x2+x37-y2_37 <=1 
C89: x2+x38 <=1 
C90: x2+x40 <=1 
C91: x2+x41 <=1 
C92: x2+x44-y2_44 <=1 
C93: x2+x45-y2_45 <=1 
C94: x2+x49-y2_49 <=1 
C95: x2+x50 <=1 
C96: x2+x52-y2_52 <=1 
C97: x2+x53-y2_53 <=1 
C98: x2+x57 <=1 
C99: x2+x59-y2_59 <=1 
C100: x3+x5-y3_5 <=1 
C101: x3+x10 <=1 
C102: x3+x15-y3_15 <=1 
C103: x3+x17 <=1 
C104: x3+x19 <=1 
C105: x3+x20 <=1 
C106: x3+x22-y3_22 <=1 
C107: x3+x23 <=1 
C108: x3+x24-y3_24 <=1 
C109: x3+x25 <=1 
C110: x3+x27 <=1 
C111: x3+x29-y3_29 <=1 
C112: x3+x32-y3_32 <=1 
C113: x3+x33-y3_33 <=1 
C114: x3+x34 <=1 
C115: x3+x35-y3_35 <=1 
C116: x3+x36-y3_36 <=1 
C117: x3+x37 <=1 
C118: x3+x38 <=1 
C119: x3+x39-y3_39 <=1 
C120: x3+x42 <=1 
C121: x3+x46-y3_46 <=1 
C122: x3+x47 <=1 
C123: x3+x49-y3_49 <=1 
C124: x3+x51 <=1 
C125: x3+x53 <=1 
C126: x3+x54 <=1 
C127: x3+x56-y3_56 <=1 
C128: x3+x57-y3_57 <=1 
C129: x3+x59 <=1 
C130: x3+x60-y3_60 <=1 
C131: x3+x61 <=1 
C132: x3+x62 <=1 
C133: x4+x6-y4_6 <=1 
C134: x4+x7 <=1 
C135: x4+x9-y4_9 <=1 
C136: x4+x13-y4_13 <=1 
C137: x4+x14 <=1 
C138: x4+x17 <=1 
C139: x4+x18-y4_18 <=1 
C140: x4+x19 <=1 
C141: x4+x21 <=1 
C142: x4+x23-y4_23 <=1 
C143: x4+x25-y4_25 <=1 
C144: x4+x26 <=1 
C145: x4+x27 <=1 
C146: x4+x29-y4_29 <=1 
C147: x4+x30 <=1 
C148: x4+x32 <=1 
C149: x4+x35 <=1 
C150: x4+x38-y4_38 <=1 
C151: x4+x39 <=1 
C152: x4+x41 <=1 
C153: x4+x42 <=1 
C154: x4+x43-y4_43 <=1 
C155: x4+x45 <=1 
C156: x4+x46-y4_46 <=1 
C157: x4+x48-y4_48 <=1 
C158: x4+x49-y4_49 <=1 
C159: x4+x51 <=1 
C160: x4+x52 <=1 
C161: x4+x54-y4_54 <=1 
C162: x4+x55 <=1 
C163: x4+x56 <=1 
C164: x4+x57 <=1 
C165: x4+x59 <=1 
C166: x4+x60 <=1 
C167: x4+x62 <=1 
C168: x5+x8 <=1 
C169: x5+x9-y5_9 <=1 
C170: x5+x10-y5_10 <=1 
C171: x5+x11 <=1 
C172: x5+x13-y5_13 <=1 
C173: x5+x17-y5_17 <=1 
C174: x5+x18 <=1 
C175: x5+x19 <=1 
C176: x5+x20 <=1 
C177: x5+x21-y5_21 <=1 
C178: x5+x22 <=1 
C179: x5+x23-y5_23 <=1 
C180: x5+x24 <=1 
C181: x5+x25 <=1 
C182: x5+x27 <=1 
C183: x5+x31 <=1 
C184: x5+x32-y5_32 <=1 
C185: x5+x33 <=1 
C186: x5+x34 <=1 
C187: x5+x35 <=1 
C188: x5+x36 <=1 
C189: x5+x40-y5_40 <=1 
C190: x5+x42 <=1 
C191: x5+x43 <=1 
C192: x5+x44 <=1 
C193: x5+x45 <=1 
C194: x5+x46 <=1 
C195: x5+x48 <=1 
C196: x5+x50 <=1 
C197: x5+x51 <=1 
C198: x5+x53-y5_53 <=1 
C199: x5+x56-y5_56 <=1 
C200: x5+x58 <=1 
C201: x5+x62 <=1 
C202: x6+x8-y6_8 <=1 
C203: x6+x13 <=1 
C204: x6+x15-y6_15 <=1 
C205: x6+x17 <=1 
C206: x6+x18-y6_18 <=1 
C207: x6+x21 <=1 
C208: x6+x22-y6_22 <=1 
C209: x6+x23 <=1 
C210: x6+x26 <=1 
C211: x6+x29-y6_29 <=1 
C212: x6+x30-y6_30 <=1 
C213: x6+x32 <=1 
C214: x6+x35-y6_35 <=1 
C215: x6+x36 <=1 
C216: x6+x37-y6_37 <=1 
C217: x6+x41-y6_41 <=1 
C218: x6+x42-y6_42 <=1 
C219: x6+x45 <=1 
C220: x6+x46 <=1 
C221: x6+x47 <=1 
C222: x6+x48 <=1 
C223: x6+x49 <=1 
C224: x6+x50 <=1 
C225: x6+x53-y6_53 <=1 
C226: x6+x54 <=1 
C227: x6+x55 <=1 
C228: x6+x56-y6_56 <=1 
C229: x6+x57 <=1 
C230: x6+x58-y6_58 <=1 
C231: x6+x61 <=1 
C232: x6+x62-y6_62 <=1 
C233: x7+x9-y7_9 <=1 
C234: x7+x11 <=1 
C235: x7+x14-y7_14 <=1 
C236: x7+x15-y7_15 <=1 
C237: x7+x16 <=1 
C238: x7+x17-y7_17 <=1 
C239: x7+x19-y7_19 <=1 
C240: x7+x20-y7_20 <=1 
C241: x7+x21-y7_21 <=1 
C242: x7+x25 <=1 
C243: x7+x27-y7_27 <=1 
C244: x7+x30 <=1 
C245: x7+x31 <=1 
C246: x7+x33-y7_33 <=1 
C247: x7+x36 <=1 
C248: x7+x38 <=1 
C249: x7+x39 <=1 
C250: x7+x40-y7_40 <=1 
C251: x7+x42-y7_42 <=1 
C252: x7+x44 <=1 
C253: x7+x45 <=1 
C254: x7+x46-y7_46 <=1 
C255: x7+x47-y7_47 <=1 
C256: x7+x50-y7_50 <=1 
C257: x7+x53 <=1 
C258: x7+x55-y7_55 <=1 
C259: x7+x57 <=1 
C260: x7+x58-y7_58 <=1 
C261: x7+x59 <=1 
C262: x7+x61-y7_61 <=1 
C263: x7+x62-y7_62 <=1 
C264: x8+x9-y8_9 <=1 
C265: x8+x10 <=1 
C266: x8+x11-y8_11 <=1 
C267: x8+x13-y8_13 <=1 
C268: x8+x14 <=1 
C269: x8+x18-y8_18 <=1 
C270: x8+x25 <=1 
C271: x8+x29 <=1 
C272: x8+x33-y8_33 <=1 
C273: x8+x34 <=1 
C274: x8+x35 <=1 
C275: x8+x39-y8_39 <=1 
C276: x8+x40 <=1 
C277: x8+x41 <=1 
C278: x8+x45-y8_45 <=1 
C279: x8+x46-y8_46 <=1 
C280: x8+x49-y8_49 <=1 
C281: x8+x50 <=1 
C282: x8+x52-y8_52 <=1 
C283: x8+x54-y8_54 <=1 
C284: x8+x55 <=1 
C285: x8+x58-y8_58 <=1 
C286: x8+x61-y8_61 <=1 
C287: x8+x62 <=1 
C288: x9+x12-y9_12 <=1 
C289: x9+x13-y9_13 <=1 
C290: x9+x14 <=1 
C291: x9+x17-y9_17 <=1 
C292: x9+x18-y9_18 <=1 
C293: x9+x22-y9_22 <=1 
C294: x9+x23-y9_23 <=1 
C295: x9+x24 <=1 
C296: x9+x29-y9_29 <=1 
C297: x9+x32-y9_32 <=1 
C298: x9+x34 <=1 
C299: x9+x36-y9_36 <=1 
C300: x9+x37 <=1 
C301: x9+x38 <=1 
C302: x9+x39-y9_39 <=1 
C303: x9+x40-y9_40 <=1 
C304: x9+x41-y9_41 <=1 
C305: x9+x43-y9_43 <=1 
C306: x9+x45 <=1 
C307: x9+x47-y9_47 <=1 
C308: x9+x48 <=1 
C309: x9+x49 <=1 
C310: x9+x50 <=1 
C311: x9+x51-y9_51 <=1 
C312: x9+x53-y9_53 <=1 
C313: x9+x57 <=1 
C314: x9+x58-y9_58 <=1 
C315: x9+x59-y9_59 <=1 
C316: x9+x60-y9_60 <=1 
C317: x9+x61-y9_61 <=1 
C318: x9+x62-y9_62 <=1 
C319: x10+x13-y10_13 <=1 
C320: x10+x16 <=1 
C321: x10+x18-y10_18 <=1 
C322: x10+x19 <=1 
C323: x10+x21 <=1 
C324: x10+x22 <=1 
C325: x10+x23-y10_23 <=1 
C326: x10+x24 <=1 
C327: x10+x26-y10_26 <=1 
C328: x10+x27-y10_27 <=1 
C329: x10+x29-y10_29 <=1 
C330: x10+x30-y10_30 <=1 
C331: x10+x32 <=1 
C332: x10+x35 <=1 
C333: x10+x36 <=1 
C334: x10+x37-y10_37 <=1 
C335: x10+x39 <=1 
C336: x10+x40-y10_40 <=1 
C337: x10+x41 <=1 
C338: x10+x43 <=1 
C339: x10+x44-y10_44 <=1 
C340: x10+x47-y10_47 <=1 
C341: x10+x48 <=1 
C342: x10+x49-y10_49 <=1 
C343: x10+x50 <=1 
C344: x10+x52-y10_52 <=1 
C345: x10+x53 <=1 
C346: x10+x54 <=1 
C347: x10+x59-y10_59 <=1 
C348: x10+x61 <=1 
C349: x11+x13 <=1 
C350: x11+x14-y11_14 <=1 
C351: x11+x15 <=1 
C352: x11+x16-y11_16 <=1 
C353: x11+x19 <=1 
C354: x11+x20 <=1 
C355: x11+x21 <=1 
C356: x11+x22-y11_22 <=1 
C357: x11+x23 <=1 
C358: x11+x24 <=1 
C359: x11+x25 <=1 
C360: x11+x27 <=1 
C361: x11+x28 <=1 
C362: x11+x29 <=1 
C363: x11+x30-y11_30 <=1 
C364: x11+x32 <=1 
C365: x11+x33-y11_33 <=1 
C366: x11+x34 <=1 
C367: x11+x38-y11_38 <=1 
C368: x11+x40 <=1 
C369: x11+x42 <=1 
C370: x11+x45 <=1 
C371: x11+x46 <=1 
C372: x11+x48-y11_48 <=1 
C373: x11+x50 <=1 
C374: x11+x51 <=1 
C375: x11+x52 <=1 
C376: x11+x56-y11_56 <=1 
C377: x11+x58 <=1 
C378: x11+x60 <=1 
C379: x11+x61-y11_61 <=1 
C380: x12+x13-y12_13 <=1 
C381: x12+x14 <=1 
C382: x12+x15 <=1 
C383: x12+x16 <=1 
C384: x12+x17 <=1 
C385: x12+x19-y12_19 <=1 
C386: x12+x21-y12_21 <=1 
C387: x12+x22-y12_22 <=1 
C388: x12+x24 <=1 
C389: x12+x28 <=1 
C390: x12+x30 <=1 
C391: x12+x32-y12_32 <=1 
C392: x12+x33-y12_33 <=1 
C393: x12+x34 <=1 
C394: x12+x35 <=1 
C395: x12+x37-y12_37 <=1 
C396: x12+x38-y12_38 <=1 
C397: x12+x39-y12_39 <=1 
C398: x12+x40-y12_40 <=1 
C399: x12+x42-y12_42 <=1 
C400: x12+x44-y12_44 <=1 
C401: x12+x46 <=1 
C402: x12+x48 <=1 
C403: x12+x49-y12_49 <=1 
C404: x12+x53-y12_53 <=1 
C405: x12+x57-y12_57 <=1 
C406: x12+x58-y12_58 <=1 
C407: x12+x59-y12_59 <=1 
C408: x12+x60-y12_60 <=1 
C409: x12+x61 <=1 
C410: x12+x62 <=1 
C411: x13+x15-y13_15 <=1 
C412: x13+x18-y13_18 <=1 
C413: x13+x19 <=1 
C414: x13+x20-y13_20 <=1 
C415: x13+x22 <=1 
C416: x13+x23-y13_23 <=1 
C417: x13+x24 <=1 
C418: x13+x28 <=1 
C419: x13+x29 <=1 
C420: x13+x30-y13_30 <=1 
C421: x13+x31-y13_31 <=1 
C422: x13+x32-y13_32 <=1 
C423: x13+x33 <=1 
C424: x13+x34-y13_34 <=1 
C425: x13+x35-y13_35 <=1 
C426: x13+x39-y13_39 <=1 
C427: x13+x40 <=1 
C428: x13+x44 <=1 
C429: x13+x47 <=1 
C430: x13+x49-y13_49 <=1 
C431: x13+x50 <=1 
C432: x13+x52-y13_52 <=1 
C433: x13+x53 <=1 
C434: x13+x55 <=1 
C435: x13+x56-y13_56 <=1 
C436: x13+x58 <=1 
C437: x13+x59 <=1 
C438: x13+x62-y13_62 <=1 
C439: x14+x18 <=1 
C440: x14+x20 <=1 
C441: x14+x21-y14_21 <=1 
C442: x14+x23 <=1 
C443: x14+x24-y14_24 <=1 
C444: x14+x25-y14_25 <=1 
C445: x14+x26-y14_26 <=1 
C446: x14+x28 <=1 
C447: x14+x29-y14_29 <=1 
C448: x14+x30 <=1 
C449: x14+x32-y14_32 <=1 
C450: x14+x33-y14_33 <=1 
C451: x14+x34-y14_34 <=1 
C452: x14+x35-y14_35 <=1 
C453: x14+x36 <=1 
C454: x14+x38 <=1 
C455: x14+x39-y14_39 <=1 
C456: x14+x40 <=1 
C457: x14+x44 <=1 
C458: x14+x45-y14_45 <=1 
C459: x14+x46 <=1 
C460: x14+x47-y14_47 <=1 
C461: x14+x48 <=1 
C462: x14+x49-y14_49 <=1 
C463: x14+x50-y14_50 <=1 
C464: x14+x51-y14_51 <=1 
C465: x14+x53 <=1 
C466: x14+x54-y14_54 <=1 
C467: x14+x56-y14_56 <=1 
C468: x14+x57-y14_57 <=1 
C469: x14+x59-y14_59 <=1 
C470: x14+x61-y14_61 <=1 
C471: x14+x62 <=1 
C472: x15+x16-y15_16 <=1 
C473: x15+x17-y15_17 <=1 
C474: x15+x18 <=1 
C475: x15+x19 <=1 
C476: x15+x21 <=1 
C477: x15+x24-y15_24 <=1 
C478: x15+x25 <=1 
C479: x15+x27 <=1 
C480: x15+x28 <=1 
C481: x15+x29 <=1 
C482: x15+x35 <=1 
C483: x15+x36 <=1 
C484: x15+x37 <=1 
C485: x15+x39 <=1 
C486: x15+x44 <=1 
C487: x15+x46 <=1 
C488: x15+x47-y15_47 <=1 
C489: x15+x49 <=1 
C490: x15+x50 <=1 
C491: x15+x51 <=1 
C492: x15+x52 <=1 
C493: x15+x53-y15_53 <=1 
C494: x15+x54 <=1 
C495: x15+x55 <=1 
C496: x15+x56 <=1 
C497: x15+x57 <=1 
C498: x15+x58-y15_58 <=1 
C499: x15+x59-y15_59 <=1 
C500: x15+x60-y15_60 <=1 
C501: x15+x61 <=1 
C502: x15+x62 <=1 
C503: x16+x18 <=1 
C504: x16+x19-y16_19 <=1 
C505: x16+x20-y16_20 <=1 
C506: x16+x22 <=1 
C507: x16+x23 <=1 
C508: x16+x24-y16_24 <=1 
C509: x16+x25-y16_25 <=1 
C510: x16+x26 <=1 
C511: x16+x28-y16_28 <=1 
C512: x16+x30 <=1 
C513: x16+x32 <=1 
C514: x16+x34-y16_34 <=1 
C515: x16+x36 <=1 
C516: x16+x43 <=1 
C517: x16+x44-y16_44 <=1 
C518: x16+x47 <=1 
C519: x16+x48 <=1 
C520: x16+x50-y16_50 <=1 
C521: x16+x54-y16_54 <=1 
C522: x16+x57 <=1 
C523: x16+x58 <=1 
C524: x16+x60 <=1 
C525: x16+x61 <=1 
C526: x16+x62-y16_62 <=1 
C527: x17+x19 <=1 
C528: x17+x21 <=1 
C529: x17+x23-y17_23 <=1 
C530: x17+x24-y17_24 <=1 
C531: x17+x26 <=1 
C532: x17+x27 <=1 
C533: x17+x28 <=1 
C534: x17+x30-y17_30 <=1 
C535: x17+x31-y17_31 <=1 
C536: x17+x33-y17_33 <=1 
C537: x17+x37 <=1 
C538: x17+x38 <=1 
C539: x17+x39 <=1 
C540: x17+x40 <=1 
C541: x17+x44-y17_44 <=1 
C542: x17+x45 <=1 
C543: x17+x46 <=1 
C544: x17+x47-y17_47 <=1 
C545: x17+x48 <=1 
C546: x17+x51-y17_51 <=1 
C547: x17+x53 <=1 
C548: x17+x57-y17_57 <=1 
C549: x17+x58-y17_58 <=1 
C550: x17+x59-y17_59 <=1 
C551: x17+x60 <=1 
C552: x17+x62-y17_62 <=1 
C553: x18+x19 <=1 
C554: x18+x22 <=1 
C555: x18+x23-y18_23 <=1 
C556: x18+x25 <=1 
C557: x18+x28-y18_28 <=1 
C558: x18+x29 <=1 
C559: x18+x30-y18_30 <=1 
C560: x18+x31 <=1 
C561: x18+x35 <=1 
C562: x18+x37-y18_37 <=1 
C563: x18+x38-y18_38 <=1 
C564: x18+x39 <=1 
C565: x18+x40-y18_40 <=1 
C566: x18+x41 <=1 
C567: x18+x44 <=1 
C568: x18+x45 <=1 
C569: x18+x49-y18_49 <=1 
C570: x18+x52-y18_52 <=1 
C571: x18+x53-y18_53 <=1 
C572: x18+x55-y18_55 <=1 
C573: x18+x56-y18_56 <=1 
C574: x18+x57-y18_57 <=1 
C575: x18+x58 <=1 
C576: x18+x59 <=1 
C577: x18+x60-y18_60 <=1 
C578: x19+x20 <=1 
C579: x19+x22 <=1 
C580: x19+x24-y19_24 <=1 
C581: x19+x26 <=1 
C582: x19+x28-y19_28 <=1 
C583: x19+x29-y19_29 <=1 
C584: x19+x32 <=1 
C585: x19+x34-y19_34 <=1 
C586: x19+x37-y19_37 <=1 
C587: x19+x38-y19_38 <=1 
C588: x19+x39-y19_39 <=1 
C589: x19+x42 <=1 
C590: x19+x43-y19_43 <=1 
C591: x19+x44 <=1 
C592: x19+x45 <=1 
C593: x19+x46-y19_46 <=1 
C594: x19+x47-y19_47 <=1 
C595: x19+x49 <=1 
C596: x19+x50 <=1 
C597: x19+x51 <=1 
C598: x19+x54 <=1 
C599: x19+x55-y19_55 <=1 
C600: x19+x58 <=1 
C601: x19+x59-y19_59 <=1 
C602: x19+x62 <=1 
C603: x20+x21-y20_21 <=1 
C604: x20+x22-y20_22 <=1 
C605: x20+x23-y20_23 <=1 
C606: x20+x24 <=1 
C607: x20+x25-y20_25 <=1 
C608: x20+x27-y20_27 <=1 
C609: x20+x28 <=1 
C610: x20+x30 <=1 
C611: x20+x32-y20_32 <=1 
C612: x20+x35-y20_35 <=1 
C613: x20+x36-y20_36 <=1 
C614: x20+x38-y20_38 <=1 
C615: x20+x39 <=1 
C616: x20+x40-y20_40 <=1 
C617: x20+x41-y20_41 <=1 
C618: x20+x42-y20_42 <=1 
C619: x20+x43 <=1 
C620: x20+x44 <=1 
C621: x20+x47 <=1 
C622: x20+x50 <=1 
C623: x20+x53-y20_53 <=1 
C624: x20+x55 <=1 
C625: x20+x59-y20_59 <=1 
C626: x20+x60 <=1 
C627: x20+x62 <=1 
C628: x21+x23-y21_23 <=1 
C629: x21+x25-y21_25 <=1 
C630: x21+x26-y21_26 <=1 
C631: x21+x27-y21_27 <=1 
C632: x21+x28 <=1 
C633: x21+x30 <=1 
C634: x21+x32-y21_32 <=1 
C635: x21+x33-y21_33 <=1 
C636: x21+x35-y21_35 <=1 
C637: x21+x36-y21_36 <=1 
C638: x21+x37-y21_37 <=1 
C639: x21+x38-y21_38 <=1 
C640: x21+x40-y21_40 <=1 
C641: x21+x43 <=1 
C642: x21+x45-y21_45 <=1 
C643: x21+x46 <=1 
C644: x21+x48-y21_48 <=1 
C645: x21+x50-y21_50 <=1 
C646: x21+x55 <=1 
C647: x21+x56-y21_56 <=1 
C648: x21+x57-y21_57 <=1 
C649: x21+x58-y21_58 <=1 
C650: x21+x59 <=1 
C651: x21+x60 <=1 
C652: x21+x61 <=1 
C653: x21+x62-y21_62 <=1 
C654: x22+x23 <=1 
C655: x22+x24-y22_24 <=1 
C656: x22+x25 <=1 
C657: x22+x26-y22_26 <=1 
C658: x22+x27 <=1 
C659: x22+x29 <=1 
C660: x22+x32-y22_32 <=1 
C661: x22+x33-y22_33 <=1 
C662: x22+x34 <=1 
C663: x22+x36-y22_36 <=1 
C664: x22+x38 <=1 
C665: x22+x39-y22_39 <=1 
C666: x22+x40 <=1 
C667: x22+x41-y22_41 <=1 
C668: x22+x42 <=1 
C669: x22+x44 <=1 
C670: x22+x45 <=1 
C671: x22+x46-y22_46 <=1 
C672: x22+x48 <=1 
C673: x22+x51-y22_51 <=1 
C674: x22+x53 <=1 
C675: x22+x54 <=1 
C676: x22+x57-y22_57 <=1 
C677: x22+x58 <=1 
C678: x22+x60-y22_60 <=1 
C679: x22+x61-y22_61 <=1 
C680: x22+x62-y22_62 <=1 
C681: x23+x25-y23_25 <=1 
C682: x23+x26 <=1 
C683: x23+x27 <=1 
C684: x23+x29-y23_29 <=1 
C685: x23+x30 <=1 
C686: x23+x31-y23_31 <=1 
C687: x23+x32-y23_32 <=1 
C688: x23+x33 <=1 
C689: x23+x34-y23_34 <=1 
C690: x23+x35 <=1 
C691: x23+x36 <=1 
C692: x23+x39 <=1 
C693: x23+x41-y23_41 <=1 
C694: x23+x42 <=1 
C695: x23+x43-y23_43 <=1 
C696: x23+x45 <=1 
C697: x23+x46-y23_46 <=1 
C698: x23+x48 <=1 
C699: x23+x49 <=1 
C700: x23+x51-y23_51 <=1 
C701: x23+x53 <=1 
C702: x23+x55-y23_55 <=1 
C703: x23+x56-y23_56 <=1 
C704: x23+x59-y23_59 <=1 
C705: x23+x60-y23_60 <=1 
C706: x23+x61 <=1 
C707: x23+x62-y23_62 <=1 
C708: x24+x27 <=1 
C709: x24+x29-y24_29 <=1 
C710: x24+x33 <=1 
C711: x24+x37-y24_37 <=1 
C712: x24+x40 <=1 
C713: x24+x43-y24_43 <=1 
C714: x24+x45 <=1 
C715: x24+x46 <=1 
C716: x24+x47 <=1 
C717: x24+x49 <=1 
C718: x24+x50-y24_50 <=1 
C719: x24+x51 <=1 
C720: x24+x52 <=1 
C721: x24+x53 <=1 
C722: x24+x56-y24_56 <=1 
C723: x24+x57-y24_57 <=1 
C724: x24+x58-y24_58 <=1 
C725: x24+x59-y24_59 <=1 
C726: x24+x61 <=1 
C727: x25+x27-y25_27 <=1 
C728: x25+x30 <=1 
C729: x25+x32 <=1 
C730: x25+x34 <=1 
C731: x25+x36 <=1 
C732: x25+x37-y25_37 <=1 
C733: x25+x38-y25_38 <=1 
C734: x25+x40-y25_40 <=1 
C735: x25+x42 <=1 
C736: x25+x44-y25_44 <=1 
C737: x25+x47-y25_47 <=1 
C738: x25+x50-y25_50 <=1 
C739: x25+x51 <=1 
C740: x25+x53 <=1 
C741: x25+x54 <=1 
C742: x25+x55-y25_55 <=1 
C743: x25+x56-y25_56 <=1 
C744: x25+x58-y25_58 <=1 
C745: x25+x59 <=1 
C746: x25+x61-y25_61 <=1 
C747: x26+x27-y26_27 <=1 
C748: x26+x30-y26_30 <=1 
C749: x26+x31-y26_31 <=1 
C750: x26+x33 <=1 
C751: x26+x35 <=1 
C752: x26+x36 <=1 
C753: x26+x40-y26_40 <=1 
C754: x26+x41-y26_41 <=1 
C755: x26+x42 <=1 
C756: x26+x44 <=1 
C757: x26+x45 <=1 
C758: x26+x49-y26_49 <=1 
C759: x26+x50 <=1 
C760: x26+x52 <=1 
C761: x26+x53-y26_53 <=1 
C762: x26+x55 <=1 
C763: x26+x56 <=1 
C764: x26+x57-y26_57 <=1 
C765: x26+x59 <=1 
C766: x26+x60 <=1 
C767: x27+x29-y27_29 <=1 
C768: x27+x31 <=1 
C769: x27+x34-y27_34 <=1 
C770: x27+x37-y27_37 <=1 
C771: x27+x38 <=1 
C772: x27+x39-y27_39 <=1 
C773: x27+x40-y27_40 <=1 
C774: x27+x41 <=1 
C775: x27+x42 <=1 
C776: x27+x43-y27_43 <=1 
C777: x27+x46 <=1 
C778: x27+x47 <=1 
C779: x27+x49 <=1 
C780: x27+x50-y27_50 <=1 
C781: x27+x52 <=1 
C782: x27+x53 <=1 
C783: x27+x55-y27_55 <=1 
C784: x27+x58 <=1 
C785: x27+x61-y27_61 <=1 
C786: x27+x62-y27_62 <=1 
C787: x28+x29-y28_29 <=1 
C788: x28+x30-y28_30 <=1 
C789: x28+x32 <=1 
C790: x28+x37-y28_37 <=1 
C791: x28+x38-y28_38 <=1 
C792: x28+x39-y28_39 <=1 
C793: x28+x41 <=1 
C794: x28+x42-y28_42 <=1 
C795: x28+x43-y28_43 <=1 
C796: x28+x44-y28_44 <=1 
C797: x28+x45-y28_45 <=1 
C798: x28+x47-y28_47 <=1 
C799: x28+x48 <=1 
C800: x28+x49-y28_49 <=1 
C801: x28+x50 <=1 
C802: x28+x51-y28_51 <=1 
C803: x28+x52 <=1 
C804: x28+x54 <=1 
C805: x28+x55 <=1 
C806: x28+x56-y28_56 <=1 
C807: x28+x57 <=1 
C808: x28+x60-y28_60 <=1 
C809: x28+x61-y28_61 <=1 
C810: x29+x30 <=1 
C811: x29+x31-y29_31 <=1 
C812: x29+x32-y29_32 <=1 
C813: x29+x33-y29_33 <=1 
C814: x29+x34 <=1 
C815: x29+x35-y29_35 <=1 
C816: x29+x37-y29_37 <=1 
C817: x29+x39 <=1 
C818: x29+x41-y29_41 <=1 
C819: x29+x42-y29_42 <=1 
C820: x29+x43 <=1 
C821: x29+x54-y29_54 <=1 
C822: x29+x55 <=1 
C823: x29+x57-y29_57 <=1 
C824: x29+x58-y29_58 <=1 
C825: x29+x59-y29_59 <=1 
C826: x29+x60-y29_60 <=1 
C827: x29+x61-y29_61 <=1 
C828: x29+x62-y29_62 <=1 
C829: x30+x31 <=1 
C830: x30+x32-y30_32 <=1 
C831: x30+x33 <=1 
C832: x30+x34 <=1 
C833: x30+x35-y30_35 <=1 
C834: x30+x38-y30_38 <=1 
C835: x30+x40 <=1 
C836: x30+x41-y30_41 <=1 
C837: x30+x43-y30_43 <=1 
C838: x30+x44-y30_44 <=1 
C839: x30+x47 <=1 
C840: x30+x48 <=1 
C841: x30+x49 <=1 
C842: x30+x50 <=1 
C843: x30+x51 <=1 
C844: x30+x53-y30_53 <=1 
C845: x30+x55-y30_55 <=1 
C846: x30+x56-y30_56 <=1 
C847: x30+x59 <=1 
C848: x30+x62 <=1 
C849: x31+x32 <=1 
C850: x31+x33 <=1 
C851: x31+x34 <=1 
C852: x31+x37 <=1 
C853: x31+x38-y31_38 <=1 
C854: x31+x39 <=1 
C855: x31+x41-y31_41 <=1 
C856: x31+x42-y31_42 <=1 
C857: x31+x44 <=1 
C858: x31+x45 <=1 
C859: x31+x46 <=1 
C860: x31+x47-y31_47 <=1 
C861: x31+x49 <=1 
C862: x31+x50-y31_50 <=1 
C863: x31+x51-y31_51 <=1 
C864: x31+x52-y31_52 <=1 
C865: x31+x53-y31_53 <=1 
C866: x31+x55 <=1 
C867: x31+x56-y31_56 <=1 
C868: x31+x58-y31_58 <=1 
C869: x31+x60-y31_60 <=1 
C870: x31+x62 <=1 
C871: x32+x33-y32_33 <=1 
C872: x32+x35 <=1 
C873: x32+x36-y32_36 <=1 
C874: x32+x37-y32_37 <=1 
C875: x32+x39-y32_39 <=1 
C876: x32+x40 <=1 
C877: x32+x41-y32_41 <=1 
C878: x32+x43 <=1 
C879: x32+x44-y32_44 <=1 
C880: x32+x47 <=1 
C881: x32+x48-y32_48 <=1 
C882: x32+x49 <=1 
C883: x32+x50-y32_50 <=1 
C884: x32+x51 <=1 
C885: x32+x54-y32_54 <=1 
C886: x32+x56 <=1 
C887: x32+x58-y32_58 <=1 
C888: x32+x59 <=1 
C889: x32+x61 <=1 
C890: x33+x36 <=1 
C891: x33+x37-y33_37 <=1 
C892: x33+x38 <=1 
C893: x33+x39 <=1 
C894: x33+x40 <=1 
C895: x33+x42 <=1 
C896: x33+x44 <=1 
C897: x33+x45 <=1 
C898: x33+x46-y33_46 <=1 
C899: x33+x49-y33_49 <=1 
C900: x33+x50 <=1 
C901: x33+x53 <=1 
C902: x33+x54-y33_54 <=1 
C903: x33+x56-y33_56 <=1 
C904: x33+x58 <=1 
C905: x33+x59-y33_59 <=1 
C906: x34+x35 <=1 
C907: x34+x38 <=1 
C908: x34+x39 <=1 
C909: x34+x40-y34_40 <=1 
C910: x34+x42 <=1 
C911: x34+x44 <=1 
C912: x34+x48-y34_48 <=1 
C913: x34+x49 <=1 
C914: x34+x50 <=1 
C915: x34+x51-y34_51 <=1 
C916: x34+x52-y34_52 <=1 
C917: x34+x53-y34_53 <=1 
C918: x34+x54 <=1 
C919: x34+x55-y34_55 <=1 
C920: x34+x57 <=1 
C921: x34+x58-y34_58 <=1 
C922: x34+x60 <=1 
C923: x34+x62-y34_62 <=1 
C924: x35+x36-y35_36 <=1 
C925: x35+x39 <=1 
C926: x35+x40-y35_40 <=1 
C927: x35+x41-y35_41 <=1 
C928: x35+x43-y35_43 <=1 
C929: x35+x44 <=1 
C930: x35+x48-y35_48 <=1 
C931: x35+x49-y35_49 <=1 
C932: x35+x50 <=1 
C933: x35+x54-y35_54 <=1 
C934: x35+x55 <=1 
C935: x35+x56 <=1 
C936: x35+x57 <=1 
C937: x35+x58-y35_58 <=1 
C938: x35+x59 <=1 
C939: x36+x38 <=1 
C940: x36+x40-y36_40 <=1 
C941: x36+x41 <=1 
C942: x36+x44 <=1 
C943: x36+x47 <=1 
C944: x36+x48-y36_48 <=1 
C945: x36+x49-y36_49 <=1 
C946: x36+x51-y36_51 <=1 
C947: x36+x53-y36_53 <=1 
C948: x36+x55-y36_55 <=1 
C949: x36+x56 <=1 
C950: x36+x57 <=1 
C951: x36+x58-y36_58 <=1 
C952: x36+x59 <=1 
C953: x36+x60-y36_60 <=1 
C954: x36+x61 <=1 
C955: x36+x62 <=1 
C956: x37+x38 <=1 
C957: x37+x39-y37_39 <=1 
C958: x37+x40-y37_40 <=1 
C959: x37+x41-y37_41 <=1 
C960: x37+x44 <=1 
C961: x37+x48 <=1 
C962: x37+x49-y37_49 <=1 
C963: x37+x51-y37_51 <=1 
C964: x37+x54 <=1 
C965: x37+x55 <=1 
C966: x37+x57-y37_57 <=1 
C967: x37+x58-y37_58 <=1 
C968: x37+x61 <=1 
C969: x37+x62-y37_62 <=1 
C970: x38+x39 <=1 
C971: x38+x41 <=1 
C972: x38+x42-y38_42 <=1 
C973: x38+x44-y38_44 <=1 
C974: x38+x45-y38_45 <=1 
C975: x38+x46-y38_46 <=1 
C976: x38+x49 <=1 
C977: x38+x50 <=1 
C978: x38+x51 <=1 
C979: x38+x52-y38_52 <=1 
C980: x38+x53 <=1 
C981: x38+x55 <=1 
C982: x38+x58-y38_58 <=1 
C983: x38+x61-y38_61 <=1 
C984: x39+x40-y39_40 <=1 
C985: x39+x43 <=1 
C986: x39+x44 <=1 
C987: x39+x45 <=1 
C988: x39+x46-y39_46 <=1 
C989: x39+x47-y39_47 <=1 
C990: x39+x50 <=1 
C991: x39+x51 <=1 
C992: x39+x52 <=1 
C993: x39+x53 <=1 
C994: x39+x54 <=1 
C995: x39+x56 <=1 
C996: x39+x57-y39_57 <=1 
C997: x39+x58-y39_58 <=1 
C998: x39+x59 <=1 
C999: x39+x61-y39_61 <=1 
C1000: x39+x62 <=1 
C1001: x40+x41-y40_41 <=1 
C1002: x40+x42 <=1 
C1003: x40+x43-y40_43 <=1 
C1004: x40+x44-y40_44 <=1 
C1005: x40+x45 <=1 
C1006: x40+x46 <=1 
C1007: x40+x47-y40_47 <=1 
C1008: x40+x48 <=1 
C1009: x40+x49-y40_49 <=1 
C1010: x40+x50 <=1 
C1011: x40+x51-y40_51 <=1 
C1012: x40+x52 <=1 
C1013: x40+x56-y40_56 <=1 
C1014: x40+x57 <=1 
C1015: x40+x60-y40_60 <=1 
C1016: x41+x42 <=1 
C1017: x41+x43 <=1 
C1018: x41+x48 <=1 
C1019: x41+x49-y41_49 <=1 
C1020: x41+x52 <=1 
C1021: x41+x53 <=1 
C1022: x41+x54 <=1 
C1023: x41+x55 <=1 
C1024: x41+x57-y41_57 <=1 
C1025: x41+x58-y41_58 <=1 
C1026: x41+x60-y41_60 <=1 
C1027: x41+x61 <=1 
C1028: x42+x43 <=1 
C1029: x42+x44 <=1 
C1030: x42+x48-y42_48 <=1 
C1031: x42+x49-y42_49 <=1 
C1032: x42+x50-y42_50 <=1 
C1033: x42+x51-y42_51 <=1 
C1034: x42+x52-y42_52 <=1 
C1035: x42+x53 <=1 
C1036: x42+x57-y42_57 <=1 
C1037: x42+x58-y42_58 <=1 
C1038: x42+x60-y42_60 <=1 
C1039: x42+x61 <=1 
C1040: x43+x45 <=1 
C1041: x43+x48-y43_48 <=1 
C1042: x43+x50-y43_50 <=1 
C1043: x43+x52 <=1 
C1044: x43+x54 <=1 
C1045: x43+x55-y43_55 <=1 
C1046: x43+x57-y43_57 <=1 
C1047: x43+x58 <=1 
C1048: x43+x59 <=1 
C1049: x43+x60 <=1 
C1050: x43+x61-y43_61 <=1 
C1051: x43+x62-y43_62 <=1 
C1052: x44+x46-y44_46 <=1 
C1053: x44+x48 <=1 
C1054: x44+x50-y44_50 <=1 
C1055: x44+x52 <=1 
C1056: x44+x53 <=1 
C1057: x44+x56-y44_56 <=1 
C1058: x44+x57 <=1 
C1059: x44+x58-y44_58 <=1 
C1060: x44+x60 <=1 
C1061: x44+x61-y44_61 <=1 
C1062: x45+x46 <=1 
C1063: x45+x47 <=1 
C1064: x45+x48 <=1 
C1065: x45+x49-y45_49 <=1 
C1066: x45+x50 <=1 
C1067: x45+x51 <=1 
C1068: x45+x53-y45_53 <=1 
C1069: x45+x55-y45_55 <=1 
C1070: x45+x56 <=1 
C1071: x45+x57-y45_57 <=1 
C1072: x45+x58-y45_58 <=1 
C1073: x45+x59-y45_59 <=1 
C1074: x45+x62 <=1 
C1075: x46+x47 <=1 
C1076: x46+x48-y46_48 <=1 
C1077: x46+x49 <=1 
C1078: x46+x50 <=1 
C1079: x46+x51-y46_51 <=1 
C1080: x46+x53 <=1 
C1081: x46+x55 <=1 
C1082: x46+x56 <=1 
C1083: x46+x58 <=1 
C1084: x46+x59-y46_59 <=1 
C1085: x46+x61 <=1 
C1086: x46+x62 <=1 
C1087: x47+x48 <=1 
C1088: x47+x49-y47_49 <=1 
C1089: x47+x50-y47_50 <=1 
C1090: x47+x52 <=1 
C1091: x47+x53 <=1 
C1092: x47+x55 <=1 
C1093: x47+x58-y47_58 <=1 
C1094: x47+x59 <=1 
C1095: x47+x60-y47_60 <=1 
C1096: x47+x62-y47_62 <=1 
C1097: x48+x50-y48_50 <=1 
C1098: x48+x51-y48_51 <=1 
C1099: x48+x53 <=1 
C1100: x48+x55-y48_55 <=1 
C1101: x48+x56 <=1 
C1102: x48+x60-y48_60 <=1 
C1103: x48+x61-y48_61 <=1 
C1104: x48+x62 <=1 
C1105: x49+x51-y49_51 <=1 
C1106: x49+x53-y49_53 <=1 
C1107: x49+x54-y49_54 <=1 
C1108: x49+x56 <=1 
C1109: x49+x58 <=1 
C1110: x49+x62-y49_62 <=1 
C1111: x50+x51 <=1 
C1112: x50+x52 <=1 
C1113: x50+x55-y50_55 <=1 
C1114: x50+x57 <=1 
C1115: x50+x58-y50_58 <=1 
C1116: x50+x60-y50_60 <=1 
C1117: x50+x61 <=1 
C1118: x51+x53-y51_53 <=1 
C1119: x51+x54 <=1 
C1120: x51+x55 <=1 
C1121: x51+x56 <=1 
C1122: x51+x58 <=1 
C1123: x51+x59 <=1 
C1124: x52+x53 <=1 
C1125: x52+x55-y52_55 <=1 
C1126: x52+x56-y52_56 <=1 
C1127: x52+x59-y52_59 <=1 
C1128: x52+x60-y52_60 <=1 
C1129: x52+x62 <=1 
C1130: x53+x54-y53_54 <=1 
C1131: x53+x56-y53_56 <=1 
C1132: x53+x57-y53_57 <=1 
C1133: x53+x58-y53_58 <=1 
C1134: x53+x59-y53_59 <=1 
C1135: x53+x60-y53_60 <=1 
C1136: x54+x55-y54_55 <=1 
C1137: x54+x56-y54_56 <=1 
C1138: x54+x57 <=1 
C1139: x54+x58 <=1 
C1140: x54+x59 <=1 
C1141: x54+x62 <=1 
C1142: x55+x56-y55_56 <=1 
C1143: x55+x57-y55_57 <=1 
C1144: x55+x58-y55_58 <=1 
C1145: x55+x59 <=1 
C1146: x55+x60-y55_60 <=1 
C1147: x55+x61 <=1 
C1148: x55+x62-y55_62 <=1 
C1149: x56+x57-y56_57 <=1 
C1150: x56+x61-y56_61 <=1 
C1151: x56+x62-y56_62 <=1 
C1152: x57+x60-y57_60 <=1 
C1153: x57+x61 <=1 
C1154: x58+x59-y58_59 <=1 
C1155: x58+x60-y58_60 <=1 
C1156: x58+x61-y58_61 <=1 
C1157: x59+x60 <=1 
C1158: x60+x61-y60_61 <=1 
C1159: x60+x62 <=1 

binary
x0
x1
x2
x3
x4
x5
x6
x7
x8
x9
x10
x11
x12
x13
x14
x15
x16
x17
x18
x19
x20
x21
x22
x23
x24
x25
x26
x27
x28
x29
x30
x31
x32
x33
x34
x35
x36
x37
x38
x39
x40
x41
x42
x43
x44
x45
x46
x47
x48
x49
x50
x51
x52
x53
x54
x55
x56
x57
x58
x59
x60
x61
x62
