problem_generation/data/GISP/train/er_n=63_m=1159_p=0.60_SET2_setparam=100.00_alpha=0.50_334.sol
objective value:                                 1267
x0                                                  1 	(obj:100)
x7                                                  1 	(obj:100)
x8                                                  1 	(obj:100)
x9                                                  1 	(obj:100)
x12                                                 1 	(obj:100)
x13                                                 1 	(obj:100)
x18                                                 1 	(obj:100)
x20                                                 1 	(obj:100)
x21                                                 1 	(obj:100)
x23                                                 1 	(obj:100)
x52                                                 1 	(obj:100)
x54                                                 1 	(obj:100)
x56                                                 1 	(obj:100)
y8_9                                                1 	(obj:-1)
y8_18                                               1 	(obj:-1)
y0_23                                               1 	(obj:-1)
y7_21                                               1 	(obj:-1)
y0_56                                               1 	(obj:-1)
y23_56                                              1 	(obj:-1)
y8_54                                               1 	(obj:-1)
y8_13                                               1 	(obj:-1)
y20_23                                              1 	(obj:-1)
y18_52                                              1 	(obj:-1)
y0_13                                               1 	(obj:-1)
y7_20                                               1 	(obj:-1)
y0_8                                                1 	(obj:-1)
y18_56                                              1 	(obj:-1)
y18_23                                              1 	(obj:-1)
y7_9                                                1 	(obj:-1)
y9_23                                               1 	(obj:-1)
y13_52                                              1 	(obj:-1)
y9_18                                               1 	(obj:-1)
y13_20                                              1 	(obj:-1)
y13_56                                              1 	(obj:-1)
y9_13                                               1 	(obj:-1)
y21_23                                              1 	(obj:-1)
y54_56                                              1 	(obj:-1)
y9_12                                               1 	(obj:-1)
y8_52                                               1 	(obj:-1)
y12_13                                              1 	(obj:-1)
y13_23                                              1 	(obj:-1)
y20_21                                              1 	(obj:-1)
y13_18                                              1 	(obj:-1)
y12_21                                              1 	(obj:-1)
y21_56                                              1 	(obj:-1)
y52_56                                              1 	(obj:-1)
